NAME : ClusterId_251 
COMMENT : (Gillet and Johnson) 
TYPE : CVRP 
DIMENSION : 5 
EDGE_WEIGHT_TYPE : EUC_2D 
CAPACITY : 500 
NODE_COORD_SECTION 
251 33 -33 
209 26 -37 
200 38 -24 
247 17 -35 
45 42 -15 
DEMAND_SECTION 
251 100
209 19
200 3
247 65
45 12
DEPOT_SECTION 
251
 -1
EOF